spark_2014_all/ALL/P630-037__keccak___keccak-padding.ads_91_19_range_check.smt2
;; produced by cvc4_16.drv ;;
(set-logic AUFFPBVFPDTNIRA)
(set-info :source |VC generated by SPARK 2014|)
(set-info :smt-lib-version 2.5)
(set-info :category industrial)
(set-info :status unknown)
;;; generated by SMT-LIB2 driver
;;; SMT-LIB2 driver: bit-vectors, common part
;;; SMT-LIB2: integer arithmetic
(declare-datatypes () ((tuple0 (Tuple0))))
(declare-sort us_private 0)

(declare-fun private__bool_eq (us_private us_private) Bool)

(declare-const us_null_ext__ us_private)

(declare-sort us_type_of_heap 0)

(declare-datatypes ()
((us_type_of_heap__ref
 (mk___type_of_heap__ref (us_type_of_heap__content us_type_of_heap)))))
(declare-sort us_image 0)

(declare-datatypes () ((int__ref (mk_int__ref (int__content Int)))))
(declare-datatypes () ((bool__ref (mk_bool__ref (bool__content Bool)))))
(declare-datatypes () ((real__ref (mk_real__ref (real__content Real)))))
(declare-datatypes ()
((us_private__ref (mk___private__ref (us_private__content us_private)))))
(define-fun int__ref___projection ((a int__ref)) Int (int__content a))

(define-fun bool__ref___projection ((a bool__ref)) Bool (bool__content a))

(define-fun real__ref___projection ((a real__ref)) Real (real__content a))

(define-fun us_private__ref___projection ((a us_private__ref)) us_private
  (us_private__content a))

(declare-fun div1 (Int Int) Int)

(declare-fun mod1 (Int Int) Int)

;; Div_mod
  (assert
  (forall ((x Int) (y Int))
  (=> (not (= y 0)) (= x (+ (* y (div1 x y)) (mod1 x y))))))

;; Div_bound
  (assert
  (forall ((x Int) (y Int))
  (=> (and (<= 0 x) (< 0 y)) (and (<= 0 (div1 x y)) (<= (div1 x y) x)))))

;; Mod_bound
  (assert
  (forall ((x Int) (y Int))
  (=> (not (= y 0)) (and (< (- (abs y)) (mod1 x y)) (< (mod1 x y) (abs y))))))

;; Div_sign_pos
  (assert
  (forall ((x Int) (y Int)) (=> (and (<= 0 x) (< 0 y)) (<= 0 (div1 x y)))))

;; Div_sign_neg
  (assert
  (forall ((x Int) (y Int)) (=> (and (<= x 0) (< 0 y)) (<= (div1 x y) 0))))

;; Mod_sign_pos
  (assert
  (forall ((x Int) (y Int))
  (=> (and (<= 0 x) (not (= y 0))) (<= 0 (mod1 x y)))))

;; Mod_sign_neg
  (assert
  (forall ((x Int) (y Int))
  (=> (and (<= x 0) (not (= y 0))) (<= (mod1 x y) 0))))

;; Rounds_toward_zero
  (assert
  (forall ((x Int) (y Int))
  (=> (not (= y 0)) (<= (abs (* (div1 x y) y)) (abs x)))))

;; Div_1
  (assert (forall ((x Int)) (= (div1 x 1) x)))

;; Mod_1
  (assert (forall ((x Int)) (= (mod1 x 1) 0)))

;; Div_inf
  (assert
  (forall ((x Int) (y Int)) (=> (and (<= 0 x) (< x y)) (= (div1 x y) 0))))

;; Mod_inf
  (assert
  (forall ((x Int) (y Int)) (=> (and (<= 0 x) (< x y)) (= (mod1 x y) x))))

;; Div_mult
  (assert
  (forall ((x Int) (y Int) (z Int))
  (! (=> (and (< 0 x) (and (<= 0 y) (<= 0 z)))
     (= (div1 (+ (* x y) z) x) (+ y (div1 z x)))) :pattern ((div1
                                                            (+ (* x y) z) x)) )))

;; Mod_mult
  (assert
  (forall ((x Int) (y Int) (z Int))
  (! (=> (and (< 0 x) (and (<= 0 y) (<= 0 z)))
     (= (mod1 (+ (* x y) z) x) (mod1 z x))) :pattern ((mod1 (+ (* x y) z) x)) )))

(define-fun mod2 ((x Int)
  (y Int)) Int (ite (< 0 y) (mod x y) (+ (mod x y) y)))

(declare-sort integer 0)

(define-fun in_range ((x Int)) Bool (and (<= (- 2147483648) x)
                                    (<= x 2147483647)))

(declare-fun attr__ATTRIBUTE_IMAGE (Int) us_image)

(declare-fun attr__ATTRIBUTE_VALUE__pre_check (us_image) Bool)

(declare-fun attr__ATTRIBUTE_VALUE (us_image) Int)

(declare-fun user_eq (integer integer) Bool)

(declare-const dummy integer)

(declare-datatypes ()
((integer__ref (mk_integer__ref (integer__content integer)))))
(define-fun integer__ref___projection ((a integer__ref)) integer (integer__content
                                                                 a))

(declare-sort natural 0)

(define-fun in_range1 ((x Int)) Bool (and (<= 0 x) (<= x 2147483647)))

(declare-fun attr__ATTRIBUTE_IMAGE1 (Int) us_image)

(declare-fun attr__ATTRIBUTE_VALUE__pre_check1 (us_image) Bool)

(declare-fun attr__ATTRIBUTE_VALUE1 (us_image) Int)

(declare-fun user_eq1 (natural natural) Bool)

(declare-const dummy1 natural)

(declare-datatypes ()
((natural__ref (mk_natural__ref (natural__content natural)))))
(define-fun natural__ref___projection ((a natural__ref)) natural (natural__content
                                                                 a))

(define-fun dynamic_invariant ((temp___expr_33 Int) (temp___is_init_30 Bool)
  (temp___skip_constant_31 Bool)
  (temp___do_toplevel_32 Bool)) Bool (=>
                                     (or (= temp___is_init_30 true)
                                     (<= 0 2147483647)) (in_range1
                                     temp___expr_33)))

(declare-fun to_rep (integer) Int)

(declare-fun of_rep (Int) integer)

;; inversion_axiom
  (assert
  (forall ((x integer)) (! (= (of_rep (to_rep x)) x) :pattern ((to_rep x)) )))

;; range_axiom
  (assert
  (forall ((x integer)) (! (in_range (to_rep x)) :pattern ((to_rep x)) )))

;; coerce_axiom
  (assert
  (forall ((x Int))
  (! (=> (in_range x) (= (to_rep (of_rep x)) x)) :pattern ((to_rep
                                                           (of_rep x))) )))

(declare-sort index_number 0)

(define-fun in_range2 ((x Int)) Bool (and (<= 0 x) (<= x 2147483647)))

(declare-fun attr__ATTRIBUTE_IMAGE2 (Int) us_image)

(declare-fun attr__ATTRIBUTE_VALUE__pre_check2 (us_image) Bool)

(declare-fun attr__ATTRIBUTE_VALUE2 (us_image) Int)

(declare-fun user_eq2 (index_number index_number) Bool)

(declare-const dummy2 index_number)

(declare-datatypes ()
((index_number__ref
 (mk_index_number__ref (index_number__content index_number)))))
(define-fun index_number__ref___projection ((a index_number__ref)) index_number
  (index_number__content a))

(declare-fun nth ((_ BitVec 8) Int) Bool)

(declare-fun lsr ((_ BitVec 8) Int) (_ BitVec 8))

(declare-fun asr ((_ BitVec 8) Int) (_ BitVec 8))

(declare-fun lsl ((_ BitVec 8) Int) (_ BitVec 8))

(declare-fun rotate_right1 ((_ BitVec 8) Int) (_ BitVec 8))

(declare-fun rotate_left1 ((_ BitVec 8) Int) (_ BitVec 8))

(declare-fun pow2 (Int) Int)

(define-fun to_int1 ((x (_ BitVec 8))) Int (ite (bvsge x (_ bv0 8))
                                           (bv2nat x) (- (- 256 (bv2nat x)))))

(define-fun uint_in_range ((i Int)) Bool (and (<= 0 i) (<= i 255)))

;; lsr_bv_is_lsr
  (assert
  (forall ((x (_ BitVec 8)) (n (_ BitVec 8)))
  (= (bvlshr x n) (lsr x (bv2nat n)))))

;; asr_bv_is_asr
  (assert
  (forall ((x (_ BitVec 8)) (n (_ BitVec 8)))
  (= (bvashr x n) (asr x (bv2nat n)))))

;; lsl_bv_is_lsl
  (assert
  (forall ((x (_ BitVec 8)) (n (_ BitVec 8)))
  (= (bvshl x n) (lsl x (bv2nat n)))))

;; rotate_left_bv_is_rotate_left
  (assert
  (forall ((v (_ BitVec 8)) (n (_ BitVec 8)))
  (= (bvor (bvshl v (bvurem n (_ bv8 8))) (bvlshr v (bvsub (_ bv8 8) (bvurem n (_ bv8 8)))))
  (rotate_left1 v (bv2nat n)))))

;; rotate_right_bv_is_rotate_right
  (assert
  (forall ((v (_ BitVec 8)) (n (_ BitVec 8)))
  (= (bvor (bvlshr v (bvurem n (_ bv8 8))) (bvshl v (bvsub (_ bv8 8) (bvurem n (_ bv8 8)))))
  (rotate_right1 v (bv2nat n)))))

(declare-fun nth_bv ((_ BitVec 8) (_ BitVec 8)) Bool)

;; nth_bv_def
  (assert
  (forall ((x (_ BitVec 8)) (i (_ BitVec 8)))
  (= (= (nth_bv x i) true) (not (= (bvand (bvlshr x i) #x01) #x00)))))

;; Nth_bv_is_nth
  (assert
  (forall ((x (_ BitVec 8)) (i (_ BitVec 8)))
  (= (nth x (bv2nat i)) (nth_bv x i))))

;; Nth_bv_is_nth2
  (assert
  (forall ((x (_ BitVec 8)) (i Int))
  (=> (and (<= 0 i) (< i 256)) (= (nth_bv x ((_ int2bv 8) i)) (nth x i)))))

(declare-fun eq_sub_bv ((_ BitVec 8) (_ BitVec 8) (_ BitVec 8)
  (_ BitVec 8)) Bool)

;; eq_sub_bv_def
  (assert
  (forall ((a (_ BitVec 8)) (b (_ BitVec 8)) (i (_ BitVec 8))
  (n (_ BitVec 8)))
  (let ((mask (bvshl (bvsub (bvshl #x01 n) #x01) i)))
  (= (eq_sub_bv a b i n) (= (bvand b mask) (bvand a mask))))))

(define-fun eq_sub ((a (_ BitVec 8)) (b (_ BitVec 8)) (i Int)
  (n Int)) Bool (forall ((j Int))
                (=> (and (<= i j) (< j (+ i n))) (= (nth a j) (nth b j)))))

;; eq_sub_equiv
  (assert
  (forall ((a (_ BitVec 8)) (b (_ BitVec 8)) (i (_ BitVec 8))
  (n (_ BitVec 8)))
  (= (eq_sub a b (bv2nat i) (bv2nat n)) (eq_sub_bv a b i n))))

(declare-datatypes () ((t__ref (mk_t__ref (t__content (_ BitVec 8))))))
(declare-fun power ((_ BitVec 8) Int) (_ BitVec 8))

(define-fun bv_min ((x (_ BitVec 8))
  (y (_ BitVec 8))) (_ BitVec 8) (ite (bvule x y) x y))

(define-fun bv_max ((x (_ BitVec 8))
  (y (_ BitVec 8))) (_ BitVec 8) (ite (bvule x y) y x))

(declare-sort byte 0)

(declare-const attr__ATTRIBUTE_MODULUS (_ BitVec 8))

(declare-fun attr__ATTRIBUTE_IMAGE3 ((_ BitVec 8)) us_image)

(declare-fun attr__ATTRIBUTE_VALUE__pre_check3 (us_image) Bool)

(declare-fun attr__ATTRIBUTE_VALUE3 (us_image) (_ BitVec 8))

(declare-fun user_eq3 (byte byte) Bool)

(declare-const dummy3 byte)

(declare-datatypes () ((byte__ref (mk_byte__ref (byte__content byte)))))
(define-fun byte__ref___projection ((a byte__ref)) byte (byte__content a))

(declare-fun to_rep1 (byte) (_ BitVec 8))

(declare-fun of_rep1 ((_ BitVec 8)) byte)

;; inversion_axiom
  (assert
  (forall ((x byte)) (! (= (of_rep1 (to_rep1 x)) x) :pattern ((to_rep1 x)) )))

;; range_axiom
  (assert true)

;; coerce_axiom
  (assert
  (forall ((x (_ BitVec 8)))
  (! (= (to_rep1 (of_rep1 x)) x) :pattern ((to_rep1 (of_rep1 x))) )))

(define-fun to_int2 ((x byte)) Int (bv2nat (to_rep1 x)))

;; range_int_axiom
  (assert
  (forall ((x byte)) (! (uint_in_range (to_int2 x)) :pattern ((to_int2 x)) )))

(declare-datatypes ()
((map__ref (mk_map__ref (map__content (Array Int byte))))))
(declare-fun slide ((Array Int byte) Int Int) (Array Int byte))

;; slide_eq
  (assert
  (forall ((a (Array Int byte)))
  (forall ((first Int))
  (! (= (slide a first first) a) :pattern ((slide a first first)) ))))

;; slide_def
  (assert
  (forall ((a (Array Int byte)))
  (forall ((old_first Int))
  (forall ((new_first Int))
  (forall ((i Int))
  (! (= (select (slide a old_first new_first) i) (select a (- i (- new_first old_first)))) :pattern ((select
  (slide a old_first new_first) i)) ))))))

(declare-fun concat1 ((Array Int byte) Int Int (Array Int byte) Int
  Int) (Array Int byte))

;; concat_def
  (assert
  (forall ((a (Array Int byte)) (b (Array Int byte)))
  (forall ((a_first Int) (a_last Int) (b_first Int) (b_last Int))
  (forall ((i Int))
  (! (and
     (=> (and (<= a_first i) (<= i a_last))
     (= (select (concat1 a a_first a_last b b_first b_last) i) (select a i)))
     (=> (< a_last i)
     (= (select (concat1 a a_first a_last b b_first b_last) i) (select b (+ (- i a_last) (- b_first 1)))))) :pattern ((select
  (concat1 a a_first a_last b b_first b_last) i)) )))))

(declare-fun singleton1 (byte Int) (Array Int byte))

;; singleton_def
  (assert
  (forall ((v byte))
  (forall ((i Int))
  (! (= (select (singleton1 v i) i) v) :pattern ((select (singleton1 v i) i)) ))))

(define-fun bool_eq ((a (Array Int byte)) (a__first Int) (a__last Int)
  (b (Array Int byte)) (b__first Int)
  (b__last Int)) Bool (ite (and
                           (ite (<= a__first a__last)
                           (and (<= b__first b__last)
                           (= (- a__last a__first) (- b__last b__first)))
                           (< b__last b__first))
                           (forall ((temp___idx_132 Int))
                           (=>
                           (and (<= a__first temp___idx_132)
                           (<= temp___idx_132 a__last))
                           (= (to_rep1 (select a temp___idx_132)) (to_rep1
                                                                  (select b (+ (- b__first a__first) temp___idx_132)))))))
                      true false))

;; bool_eq_rev
  (assert
  (forall ((a (Array Int byte)) (b (Array Int byte)))
  (forall ((a__first Int) (a__last Int) (b__first Int) (b__last Int))
  (=> (= (bool_eq b b__first b__last a a__first a__last) true)
  (and
  (ite (<= a__first a__last)
  (and (<= b__first b__last) (= (- a__last a__first) (- b__last b__first)))
  (< b__last b__first))
  (forall ((temp___idx_132 Int))
  (=> (and (<= a__first temp___idx_132) (<= temp___idx_132 a__last))
  (= (to_rep1 (select a temp___idx_132)) (to_rep1
                                         (select b (+ (- b__first a__first) temp___idx_132)))))))))))

(declare-fun compare ((Array Int byte) Int Int (Array Int byte) Int Int) Int)

;; compare_def_eq
  (assert
  (forall ((a (Array Int byte)) (b (Array Int byte)))
  (forall ((a_first Int) (a_last Int) (b_first Int) (b_last Int))
  (! (= (= (compare a a_first a_last b b_first b_last) 0)
     (= (bool_eq a a_first a_last b b_first b_last) true)) :pattern (
  (compare a a_first a_last b b_first b_last)) ))))

;; compare_def_lt
  (assert
  (forall ((a (Array Int byte)) (b (Array Int byte)))
  (forall ((a_first Int) (a_last Int) (b_first Int) (b_last Int))
  (! (= (< (compare a a_first a_last b b_first b_last) 0)
     (exists ((i Int) (j Int))
     (and (<= i a_last)
     (and (< j b_last)
     (and (= (bool_eq a a_first i b b_first j) true)
     (or (= i a_last)
     (and (< i a_last)
     (bvult (to_rep1 (select a (+ i 1))) (to_rep1 (select b (+ j 1))))))))))) :pattern (
  (compare a a_first a_last b b_first b_last)) ))))

;; compare_def_gt
  (assert
  (forall ((a (Array Int byte)) (b (Array Int byte)))
  (forall ((a_first Int) (a_last Int) (b_first Int) (b_last Int))
  (! (= (< 0 (compare a a_first a_last b b_first b_last))
     (exists ((i Int) (j Int))
     (and (<= i b_last)
     (and (< j a_last)
     (and (= (bool_eq a a_first j b b_first i) true)
     (or (= i b_last)
     (and (< i b_last)
     (bvugt (to_rep1 (select a (+ j 1))) (to_rep1 (select b (+ i 1))))))))))) :pattern (
  (compare a a_first a_last b b_first b_last)) ))))

(declare-sort t 0)

(declare-fun first (t) integer)

(declare-fun last (t) integer)

(declare-fun mk (Int Int) t)

;; mk_def
  (assert
  (forall ((f Int) (l Int))
  (! (=> (in_range f)
     (=> (in_range l)
     (and (= (to_rep (first (mk f l))) f) (= (to_rep (last (mk f l))) l)))) :pattern (
  (mk f l)) )))

(define-fun dynamic_property ((range_first Int) (range_last Int) (low Int)
  (high Int)) Bool (and (in_range low)
                   (and (in_range high)
                   (=> (<= low high) (and (in_range2 low) (in_range2 high))))))

(declare-datatypes () ((us_t (mk___t (elts (Array Int byte))(rt t)))))
(define-fun to_array ((a us_t)) (Array Int byte) (elts a))

(define-fun of_array ((a (Array Int byte)) (f Int)
  (l Int)) us_t (mk___t a (mk f l)))

(define-fun first1 ((a us_t)) Int (to_rep (first (rt a))))

(define-fun last1 ((a us_t)) Int (to_rep (last (rt a))))

(define-fun length ((a us_t)) Int (ite (<= (first1 a) (last1 a))
                                  (+ (- (last1 a) (first1 a)) 1) 0))

(declare-const value__size Int)

(declare-fun object__size ((Array Int byte)) Int)

(declare-const value__component__size Int)

(declare-fun object__component__size ((Array Int byte)) Int)

(declare-const value__alignment Int)

(declare-fun object__alignment ((Array Int byte)) Int)

;; value__size_axiom
  (assert (<= 0 value__size))

;; object__size_axiom
  (assert (forall ((a (Array Int byte))) (<= 0 (object__size a))))

;; value__component__size_axiom
  (assert (<= 0 value__component__size))

;; object__component__size_axiom
  (assert (forall ((a (Array Int byte))) (<= 0 (object__component__size a))))

;; value__alignment_axiom
  (assert (<= 0 value__alignment))

;; object__alignment_axiom
  (assert (forall ((a (Array Int byte))) (<= 0 (object__alignment a))))

(define-fun bool_eq1 ((x us_t)
  (y us_t)) Bool (bool_eq (elts x) (to_rep (first (rt x)))
                 (to_rep (last (rt x))) (elts y) (to_rep (first (rt y)))
                 (to_rep (last (rt y)))))

(declare-fun user_eq4 (us_t us_t) Bool)

(declare-const dummy4 us_t)

(declare-datatypes ()
((byte_array__ref (mk_byte_array__ref (byte_array__content us_t)))))
(define-fun byte_array__ref___projection ((a byte_array__ref)) us_t (byte_array__content
                                                                    a))

(declare-const block__first integer)

(declare-const block__last integer)

(declare-const attr__ATTRIBUTE_ADDRESS Int)

(declare-const num_used_bits Int)

(declare-const attr__ATTRIBUTE_ADDRESS1 Int)

(declare-const max_bit_length Int)

(declare-const attr__ATTRIBUTE_ADDRESS2 Int)

(define-fun dynamic_invariant1 ((temp___expr_15 Int) (temp___is_init_12 Bool)
  (temp___skip_constant_13 Bool)
  (temp___do_toplevel_14 Bool)) Bool (=>
                                     (or (= temp___is_init_12 true)
                                     (<= (- 2147483648) 2147483647))
                                     (in_range temp___expr_15)))

(define-fun dynamic_invariant2 ((temp___expr_220 (_ BitVec 8))
  (temp___is_init_217 Bool) (temp___skip_constant_218 Bool)
  (temp___do_toplevel_219 Bool)) Bool true)

(define-fun dynamic_invariant3 ((temp___expr_226 Int)
  (temp___is_init_223 Bool) (temp___skip_constant_224 Bool)
  (temp___do_toplevel_225 Bool)) Bool (=>
                                      (or (= temp___is_init_223 true)
                                      (<= 0 2147483647)) (in_range2
                                      temp___expr_226)))

(define-fun dynamic_invariant4 ((temp___expr_232 us_t)
  (temp___is_init_229 Bool) (temp___skip_constant_230 Bool)
  (temp___do_toplevel_231 Bool)) Bool (=>
                                      (not (= temp___skip_constant_230 true))
                                      (dynamic_property 0 2147483647
                                      (first1 temp___expr_232)
                                      (last1 temp___expr_232))))

(declare-const o Int)

;; H
  (assert (dynamic_property 0 2147483647 (to_rep block__first)
  (to_rep block__last)))

;; H
  (assert (in_range1 num_used_bits))

;; H
  (assert (in_range1 max_bit_length))

;; H
  (assert
  (=> (<= (to_rep block__first) (to_rep block__last))
  (= o (+ (- (to_rep block__last) (to_rep block__first)) 1))))

;; H
  (assert (=> (not (<= (to_rep block__first) (to_rep block__last))) (= o 0)))

(assert
;; WP_parameter_def
 ;; File "keccak-padding.ads", line 45, characters 0-0
  (not (in_range o)))
(check-sat)
(exit)
